(set-info :smt-lib-version 2.6)
(set-logic ALL)
(set-info :source |
Benchmarks used in the followin paper:
Big proof engines as little proof engines: new results on rewrite-based satisfiability procedure
Alessandro Armando, Maria Paola Bonacina, Silvio Ranise, Stephan Schulz. 
PDPAR'05
http://www.ai.dist.unige.it/pdpar05/


|)
(set-info :category "crafted")
(set-info :status sat)

(declare-sort Element 0)
(declare-fun a_100 () (Seq Element))
(declare-fun a_102 () (Seq Element))
(declare-fun a_104 () (Seq Element))
(declare-fun a_106 () (Seq Element))
(declare-fun a_108 () (Seq Element))
(declare-fun a_109 () (Seq Element))
(declare-fun a_110 () (Seq Element))
(declare-fun a_111 () (Seq Element))
(declare-fun a_113 () (Seq Element))
(declare-fun a_115 () (Seq Element))
(declare-fun a_117 () (Seq Element))
(declare-fun a_119 () (Seq Element))
(declare-fun e_101 () Element)
(declare-fun e_103 () Element)
(declare-fun e_105 () Element)
(declare-fun e_107 () Element)
(declare-fun e_112 () Element)
(declare-fun e_114 () Element)
(declare-fun e_116 () Element)
(declare-fun e_118 () Element)
(declare-fun e_99 () Element)
(declare-fun a1 () (Seq Element))
(declare-fun i0 () Int)
(declare-fun i1 () Int)
(declare-fun i2 () Int)
(assert (= a_100 (seq.update a1 i2 (seq.unit e_99))))
(assert (= a_102 (seq.update a_100 i1 (seq.unit e_101))))
(assert (= a_104 (seq.update a_102 i2 (seq.unit e_103))))
(assert (= a_106 (seq.update a_104 i1 (seq.unit e_105))))
(assert (= a_108 (seq.update a_106 i2 (seq.unit e_107))))
(assert (= a_109 (seq.update a_108 i2 (seq.unit e_107))))
(assert (= a_110 (seq.update a1 i1 (seq.unit e_101))))
(assert (= a_111 (seq.update a_110 i2 (seq.unit e_99))))
(assert (= a_113 (seq.update a_111 i1 (seq.unit e_112))))
(assert (= a_115 (seq.update a_113 i2 (seq.unit e_114))))
(assert (= a_117 (seq.update a_115 i0 (seq.unit e_116))))
(assert (= a_119 (seq.update a_117 i2 (seq.unit e_118))))
(assert (= e_101 (seq.nth a1 i2)))
(assert (= e_103 (seq.nth a_102 i1)))
(assert (= e_105 (seq.nth a_102 i2)))
(assert (= e_107 (seq.nth a_106 i2)))
(assert (= e_112 (seq.nth a_111 i2)))
(assert (= e_114 (seq.nth a_111 i1)))
(assert (= e_116 (seq.nth a_115 i2)))
(assert (= e_118 (seq.nth a_115 i0)))
(assert (= e_99 (seq.nth a1 i1)))
(assert (not (= a_109 a_119)))
(check-sat)
(exit)
